DIMENSION: 7
EDGE_WEIGHT_TYPE: EXPLICIT
EDGE_WEIGHT_FORMAT: FULL_MATRIX
EDGE_WEIGHT_SECTION:
32767 15 1 4 32767 1 61 
15 32767 93 32767 32767 63 77 
1 93 32767 32767 32767 50 12 
4 32767 32767 32767 32767 34 11 
32767 32767 32767 32767 32767 32767 25 
1 63 50 34 32767 32767 83 
61 77 12 11 25 83 32767 
EOF